p cnf 10 50
-10 3 7 0
7 3 -9 0
-2 1 -3 0
-5 -1 -3 0
-5 -10 7 0
7 10 6 0
9 -1 5 0
2 -5 -3 0
7 -4 -10 0
-6 -8 4 0
-8 10 -9 0
1 4 6 0
-4 -10 7 0
2 1 9 0
-7 -6 -9 0
1 9 4 0
-7 9 8 0
2 -7 9 0
10 2 -9 0
6 10 2 0
6 5 1 0
-2 -8 -6 0
-10 -2 -7 0
-1 8 -6 0
1 9 4 0
8 -1 -6 0
8 -4 -6 0
-4 -7 8 0
-5 8 9 0
-3 2 7 0
4 7 -9 0
10 -8 7 0
1 10 -3 0
6 -8 1 0
7 -5 9 0
6 7 3 0
-10 5 9 0
-1 7 6 0
-2 -3 -6 0
10 -9 -8 0
5 8 6 0
7 9 1 0
-1 -2 3 0
5 1 -9 0
1 -9 -3 0
-5 -2 -4 0
-5 -1 7 0
1 8 -10 0
8 1 -7 0
8 6 7 0